0 3926
1 3904
2 3846
4 3800
5 3764
12 3742
14 3736
15 3733
18 3720
21 3680
29 3655
35 3625
37 3604
38 3553
58 3548
77 3542
78 3533
89 3529
97 3520
101 3506
103 3489
110 3465
131 3462
135 3438
172 3413
179 3376
224 3342
251 3338
311 3336
344 3328
358 3327
369 3326
375 3324
394 3319
424 3311
457 3310
470 3297
513 3295
657 3292
674 3288
683 3283
726 3279
785 3278
802 3276
852 3270
927 3266
931 3264
934 3261
961 3252
1089 3245
1176 3243
1245 3241
1313 3237
1321 3233
3138 3232
3145 3217
3333 3216
3339 3214
3340 3210
3458 3207
3701 3204
3790 3202
4024 3198
4031 3191
4034 3187
4047 3181
4128 3180
6181 3176
6184 3163
6194 3146
6249 3144
6273 3143
7085 3140
7092 3128
7510 3127
7593 3126
